(set-logic QF_UF)
(declare-fun A0 () Bool)
(declare-fun A1 () Bool)
(declare-fun A2 () Bool)
(declare-fun A3 () Bool)
(declare-fun A4 () Bool)
(declare-fun A5 () Bool)
(declare-fun A6 () Bool)
(declare-fun A7 () Bool)
(declare-fun A8 () Bool)
(declare-fun A9 () Bool)
(declare-fun A10 () Bool)
(declare-fun A11 () Bool)
(declare-fun A12 () Bool)
(declare-fun A13 () Bool)
(declare-fun A14 () Bool)
(declare-fun A15 () Bool)
(declare-fun A16 () Bool)
(declare-fun A17 () Bool)
(declare-fun A18 () Bool)
(declare-fun A19 () Bool)
(declare-fun A20 () Bool)
(declare-fun A21 () Bool)
(declare-fun A22 () Bool)
(declare-fun A23 () Bool)
(declare-fun A24 () Bool)
(assert (let ((.def_0 (not A19))) (let ((.def_1 (and .def_0 A17))) (let ((.def_2 (or A22 A20))) (let ((.def_3 (not .def_2))) (let ((.def_4 (or .def_3 .def_1))) (let ((.def_5 (not A21))) (let ((.def_6 (and .def_5 A18))) (let ((.def_7 (not A22))) (let ((.def_8 (and .def_7 A10))) (let ((.def_9 (not .def_8))) (let ((.def_10 (or .def_9 .def_6))) (let ((.def_11 (not .def_10))) (let ((.def_12 (or .def_11 .def_4))) (let ((.def_13 (not A15))) (let ((.def_14 (not A11))) (let ((.def_15 (or .def_14 .def_13))) (let ((.def_16 (not .def_15))) (let ((.def_17 (not A0))) (let ((.def_18 (and A21 .def_17))) (let ((.def_19 (or .def_18 .def_16))) (let ((.def_20 (not .def_19))) (let ((.def_21 (not A5))) (let ((.def_22 (or .def_21 A2))) (let ((.def_23 (not A20))) (let ((.def_24 (or A5 .def_23))) (let ((.def_25 (or .def_24 .def_22))) (let ((.def_26 (not .def_25))) (let ((.def_27 (or .def_26 .def_20))) (let ((.def_28 (not .def_27))) (let ((.def_29 (or .def_28 .def_12))) (let ((.def_30 (and A12 A18))) (let ((.def_31 (not .def_30))) (let ((.def_32 (not A1))) (let ((.def_33 (and .def_32 A3))) (let ((.def_34 (or .def_33 .def_31))) (let ((.def_35 (not .def_34))) (let ((.def_36 (= A15 A21))) (let ((.def_37 (not .def_36))) (let ((.def_38 (or A6 A1))) (let ((.def_39 (or .def_38 .def_37))) (let ((.def_40 (not .def_39))) (let ((.def_41 (and .def_40 .def_35))) (let ((.def_42 (not .def_41))) (let ((.def_43 (not A17))) (let ((.def_44 (not A4))) (let ((.def_45 (or .def_44 .def_43))) (let ((.def_46 (or A6 A16))) (let ((.def_47 (= .def_46 .def_45))) (let ((.def_48 (and A23 .def_7))) (let ((.def_49 (not .def_48))) (let ((.def_50 (not A14))) (let ((.def_51 (or .def_50 A13))) (let ((.def_52 (or .def_51 .def_49))) (let ((.def_53 (or .def_52 .def_47))) (let ((.def_54 (and .def_53 .def_42))) (let ((.def_55 (not .def_54))) (let ((.def_56 (and .def_55 .def_29))) (let ((.def_57 (not A13))) (let ((.def_58 (and A2 .def_57))) (let ((.def_59 (not .def_58))) (let ((.def_60 (not A24))) (let ((.def_61 (and A0 .def_60))) (let ((.def_62 (not .def_61))) (let ((.def_63 (or .def_62 .def_59))) (let ((.def_64 (not .def_63))) (let ((.def_65 (and A23 A14))) (let ((.def_66 (not A7))) (let ((.def_67 (= .def_66 A20))) (let ((.def_68 (not .def_67))) (let ((.def_69 (and .def_68 .def_65))) (let ((.def_70 (or .def_69 .def_64))) (let ((.def_71 (or A9 A8))) (let ((.def_72 (not .def_71))) (let ((.def_73 (not A8))) (let ((.def_74 (and .def_73 A13))) (let ((.def_75 (not .def_74))) (let ((.def_76 (and .def_75 .def_72))) (let ((.def_77 (or .def_50 A21))) (let ((.def_78 (and .def_43 .def_60))) (let ((.def_79 (and .def_78 .def_77))) (let ((.def_80 (not .def_79))) (let ((.def_81 (and .def_80 .def_76))) (let ((.def_82 (and .def_81 .def_70))) (let ((.def_83 (or .def_57 .def_0))) (let ((.def_84 (or A8 A0))) (let ((.def_85 (and .def_84 .def_83))) (let ((.def_86 (not A12))) (let ((.def_87 (and .def_73 .def_86))) (let ((.def_88 (or A20 A12))) (let ((.def_89 (and .def_88 .def_87))) (let ((.def_90 (not .def_89))) (let ((.def_91 (or .def_90 .def_85))) (let ((.def_92 (and .def_57 .def_5))) (let ((.def_93 (not .def_92))) (let ((.def_94 (not A9))) (let ((.def_95 (or A21 .def_94))) (let ((.def_96 (and .def_95 .def_93))) (let ((.def_97 (not .def_96))) (let ((.def_98 (and A20 .def_94))) (let ((.def_99 (not .def_98))) (let ((.def_100 (or A6 A14))) (let ((.def_101 (and .def_100 .def_99))) (let ((.def_102 (not .def_101))) (let ((.def_103 (or .def_102 .def_97))) (let ((.def_104 (not .def_103))) (let ((.def_105 (and .def_104 .def_91))) (let ((.def_106 (and .def_105 .def_82))) (let ((.def_107 (not .def_106))) (let ((.def_108 (and .def_107 .def_56))) (let ((.def_109 (not .def_108))) .def_109)))))))))))))))))))))))))))))))))))))))))))))))))))))))))))))))))))))))))))))))))))))))))))))))))))))))))))))))
(check-sat)
